tour/single.atsp
NAME : EXPLORATION
TYPE : ATSP
DIMENSION : 5
EDGE_WEIGHT_TYPE: EXPLICIT
EDGE_WEIGHT_FORMAT: FULL_MATRIX
EDGE_WEIGHT_SECTION
0  
0 2770 3378 3133 0 
2770 0 3835 1622 0 
3378 3835 0 2520 0 
3133 1622 2520 0 0 
4389 4567 1013 3070 0 
